25
1 0 1
3 0 1
4 1 1
4 2 1
4 3 1
6 1 1
6 2 1
6 3 1
6 5 1
7 0 1
7 4 1
7 5 1
7 6 1
8 0 1
8 1 1
8 2 1
8 3 1
8 4 1
8 6 1
9 2 1
9 5 1
9 7 1
9 8 1
10 1 1
10 2 1
10 4 1
10 8 1
10 9 1
11 0 1
11 1 1
11 5 1
11 6 1
11 9 1
11 10 1
12 0 1
12 1 1
12 2 1
12 8 1
12 9 1
12 11 1
13 0 1
13 2 1
13 4 1
13 6 1
13 10 1
14 0 1
14 1 1
14 2 1
14 4 1
14 5 1
14 10 1
14 11 1
15 1 1
15 2 1
15 4 1
15 6 1
15 7 1
15 13 1
16 1 1
16 2 1
16 4 1
16 6 1
16 7 1
16 8 1
16 9 1
16 10 1
16 11 1
16 13 1
17 0 1
17 1 1
17 2 1
17 3 1
17 6 1
17 12 1
17 14 1
17 16 1
18 0 1
18 1 1
18 3 1
18 6 1
18 7 1
18 11 1
18 13 1
18 14 1
18 15 1
18 17 1
19 0 1
19 2 1
19 3 1
19 4 1
19 6 1
19 7 1
19 12 1
19 15 1
19 17 1
19 18 1
20 1 1
20 2 1
20 3 1
20 4 1
20 6 1
20 10 1
20 12 1
20 15 1
20 17 1
20 18 1
20 19 1
21 3 1
21 4 1
21 5 1
21 6 1
21 7 1
21 9 1
21 11 1
21 12 1
21 14 1
21 15 1
21 16 1
21 17 1
21 18 1
22 0 1
22 3 1
22 7 1
22 8 1
22 9 1
22 10 1
22 11 1
22 13 1
22 14 1
22 16 1
22 17 1
22 18 1
22 21 1
23 10 1
23 12 1
23 16 1
23 17 1
23 18 1
23 19 1
23 20 1
23 21 1
24 1 1
24 2 1
24 5 1
24 6 1
24 7 1
24 8 1
24 10 1
24 14 1
24 17 1
24 18 1
24 20 1
24 23 1
